[384, 400, 336, 204, 196, 188, 184, 180, 94, 88, 84, 84, 82, 76, 76, 70, 70, 66, 68, 66, 66, 66, 66, 66, 66, 66, 66, 66, 66, 66, 64, 64, 64, 64, 66, 66, 64, 64, 64, 64, 64, 64, 64, 64, 64, 64, 66, 64, 66, 66, 66, 64, 64, 66, 64, 64, 66, 64, 64, 64, 64, 64, 64, 66, 64, 64, 64, 64, 64, 64, 64, 64, 66, 66, 66, 66, 64, 64, 64, 64, 64, 64, 64, 64, 64, 64, 64, 66, 66, 64, 64, 66, 64, 66, 66, 66, 64, 66, 64, 64, 66, 66, 66, 66, 66, 66, 66, 64, 66, 64, 66, 66, 66, 66, 66, 66, 64, 66, 66, 64, 66, 66, 66, 64, 64, 64, 64, 64, 64, 66, 66, 64, 66, 66, 64, 66, 64, 66, 66, 66, 66, 66, 64, 64, 64, 64, 64, 64, 66, 64, 66, 64, 64, 64, 66, 66, 64, 64, 64, 64, 66, 66, 66, 66, 66, 64, 64, 66, 66, 66, 66, 66, 66, 66, 64, 64, 64, 64, 64, 64, 64, 64, 64, 64, 64, 64, 64, 64, 64, 64, 64, 64, 64, 64, 64, 64, 64, 64, 64, 64]